PARAMETER_FILE = even/even_uncomplete_graph_new/nei/par/random137.par
PROBLEM_FILE = even/even_uncomplete_graph_new/nei/mat/random137.tsp
Successes/Runs = 0/10
Cost.min = 907, Cost.avg = 907.70, Cost.max = 908
Gap.min = 0.0000%, Gap.avg = 0.0772%, Gap.max = 0.1103%
Trials.min = 1000, Trials.avg = 1000.0, Trials.max = 1000
Time.min = 0.19 sec., Time.avg = 0.48 sec., Time.max = 1.35 sec.
Time.total = 4.93 sec.
